30
1 0 93
2 0 4
2 1 7
3 0 11
3 1 39
3 2 32
4 0 74
4 1 28
4 2 95
4 3 98
5 0 43
5 1 57
5 2 36
5 3 53
5 4 80
6 0 16
6 1 9
6 2 86
6 3 33
6 4 22
6 5 66
7 0 35
7 1 26
7 2 29
7 3 75
7 4 56
7 5 73
7 6 7
8 0 52
8 1 63
8 2 40
8 3 45
8 4 61
8 5 65
8 6 33
8 7 75
9 0 71
9 1 79
9 2 90
9 3 32
9 4 60
9 5 88
9 6 18
9 7 20
9 8 16
10 0 63
10 1 86
10 2 29
10 3 74
10 4 93
10 5 78
10 6 28
10 7 72
10 8 63
10 9 60
11 0 40
11 1 43
11 2 91
11 3 19
11 4 60
11 5 52
11 6 18
11 7 73
11 8 83
11 9 59
11 10 97
12 0 68
12 1 34
12 2 56
12 3 32
12 4 100
12 5 49
12 6 20
12 7 69
12 8 40
12 9 22
12 10 83
12 11 34
13 0 41
13 1 20
13 2 79
13 3 65
13 4 57
13 5 45
13 6 70
13 7 96
13 8 9
13 9 88
13 10 22
13 11 74
13 12 67
14 0 94
14 1 88
14 2 36
14 3 44
14 4 45
14 5 44
14 6 60
14 7 15
14 8 34
14 9 50
14 10 73
14 11 7
14 12 69
14 13 61
15 0 85
15 1 22
15 2 47
15 3 92
15 4 75
15 5 97
15 6 76
15 7 16
15 8 50
15 9 4
15 10 49
15 11 61
15 12 54
15 13 47
15 14 76
16 0 15
16 1 2
16 2 8
16 3 49
16 4 70
16 5 55
16 6 50
16 7 88
16 8 61
16 9 71
16 10 86
16 11 86
16 12 71
16 13 95
16 14 54
16 15 66
17 0 24
17 1 70
17 2 79
17 3 2
17 4 83
17 5 89
17 6 92
17 7 81
17 8 4
17 9 16
17 10 52
17 11 96
17 12 47
17 13 35
17 14 85
17 15 8
17 16 25
18 0 29
18 1 30
18 2 11
18 3 36
18 4 79
18 5 72
18 6 79
18 7 28
18 8 40
18 9 84
18 10 6
18 11 80
18 12 38
18 13 19
18 14 37
18 15 99
18 16 84
18 17 21
19 0 64
19 1 64
19 2 16
19 3 50
19 4 49
19 5 84
19 6 100
19 7 28
19 8 73
19 9 27
19 10 59
19 11 64
19 12 35
19 13 50
19 14 9
19 15 13
19 16 54
19 17 39
19 18 16
20 0 69
20 1 43
20 2 31
20 3 13
20 4 4
20 5 59
20 6 84
20 7 35
20 8 1
20 9 43
20 10 12
20 11 61
20 12 43
20 13 13
20 14 7
20 15 68
20 16 61
20 17 72
20 18 6
20 19 42
21 0 39
21 1 32
21 2 83
21 3 5
21 4 41
21 5 90
21 6 71
21 7 38
21 8 15
21 9 79
21 10 42
21 11 19
21 12 65
21 13 97
21 14 10
21 15 9
21 16 17
21 17 96
21 18 15
21 19 48
21 20 15
22 0 52
22 1 21
22 2 44
22 3 16
22 4 80
22 5 37
22 6 74
22 7 80
22 8 54
22 9 25
22 10 28
22 11 66
22 12 35
22 13 73
22 14 53
22 15 84
22 16 33
22 17 42
22 18 92
22 19 64
22 20 54
22 21 5
23 0 29
23 1 40
23 2 95
23 3 53
23 4 67
23 5 61
23 6 96
23 7 28
23 8 9
23 9 79
23 10 76
23 11 2
23 12 26
23 13 74
23 14 83
23 15 21
23 16 21
23 17 12
23 18 58
23 19 85
23 20 32
23 21 54
23 22 89
24 0 22
24 1 24
24 2 61
24 3 90
24 4 84
24 5 68
24 6 51
24 7 58
24 8 76
24 9 12
24 10 23
24 11 66
24 12 86
24 13 80
24 14 34
24 15 9
24 16 91
24 17 64
24 18 8
24 19 14
24 20 42
24 21 94
24 22 11
24 23 69
25 0 63
25 1 90
25 2 6
25 3 43
25 4 15
25 5 53
25 6 3
25 7 93
25 8 11
25 9 23
25 10 30
25 11 94
25 12 74
25 13 27
25 14 19
25 15 17
25 16 84
25 17 2
25 18 81
25 19 58
25 20 63
25 21 39
25 22 84
25 23 92
25 24 71
26 0 11
26 1 2
26 2 93
26 3 28
26 4 67
26 5 66
26 6 55
26 7 88
26 8 3
26 9 46
26 10 2
26 11 18
26 12 59
26 13 55
26 14 75
26 15 68
26 16 76
26 17 30
26 18 23
26 19 32
26 20 32
26 21 52
26 22 48
26 23 26
26 24 42
26 25 10
27 0 75
27 1 56
27 2 75
27 3 99
27 4 54
27 5 30
27 6 42
27 7 36
27 8 5
27 9 40
27 10 37
27 11 16
27 12 66
27 13 39
27 14 59
27 15 37
27 16 10
27 17 59
27 18 27
27 19 91
27 20 33
27 21 60
27 22 75
27 23 72
27 24 47
27 25 18
27 26 89
28 0 69
28 1 97
28 2 63
28 3 21
28 4 24
28 5 18
28 6 48
28 7 95
28 8 97
28 9 91
28 10 12
28 11 80
28 12 55
28 13 53
28 14 39
28 15 11
28 16 68
28 17 82
28 18 65
28 19 75
28 20 100
28 21 57
28 22 59
28 23 83
28 24 14
28 25 77
28 26 82
28 27 13
29 0 31
29 1 59
29 2 18
29 3 90
29 4 10
29 5 83
29 6 3
29 7 21
29 8 50
29 9 28
29 10 22
29 11 28
29 12 18
29 13 36
29 14 35
29 15 26
29 16 60
29 17 87
29 18 59
29 19 50
29 20 47
29 21 70
29 22 10
29 23 28
29 24 63
29 25 94
29 26 85
29 27 40
29 28 49
